(set-logic QF_S)
(declare-fun var0 () String)
(declare-fun var1 () String)
(declare-fun var2 () Int)
(declare-fun var3 () String)
(declare-fun var4 () String)
(declare-fun var5 () Int)
(declare-fun var6 () Int)
(declare-fun var7 () Int)
(assert (< (str.indexof var0 var1 var2) (str.len (str.replace var3 var4 var4))))
(assert (>= (str.indexof var4 var3 var5) (str.to.int var1)))
(assert (>= (str.len (str.at var1 var6)) (str.to.int (str.substr var4 var7 14))))
(assert (>= var2 var2))
(check-sat)